p cnf 7230 16
-5397 -5399 5653 0
5048 5305 -5651 0
-5046 -5395 -5649 0
-2782 -5391 -5647 0
5397 -5654 0
-5048 -5652 0
5046 -5650 0
2782 -5648 0
-5653 5654 0
5651 5652 0
5649 5650 0
5647 5648 0
5399 -5654 0
-5305 -5652 0
5395 -5650 0
5391 -5648 0
